(define-fun div_int ((dividend (Item Int)) (divisor (Item Int))) (Item Int)
  (ite (or (= dividend (as Crash (Item Int))) (= divisor (as Crash (Item Int))))
    (as Crash (Item Int))
    (ite (= (value divisor) 0)
      (as Crash (Item Int))
      (mk-item (div (value dividend) (value divisor)))
    )
  )
)
(define-fun mod_int ((dividend (Item Int)) (divisor (Item Int))) (Item Int)
  (ite (or (= dividend (as Crash (Item Int))) (= divisor (as Crash (Item Int))))
    (as Crash (Item Int))
    (ite (= (value divisor) 0)
      (as Crash (Item Int))
      (mk-item (mod (value dividend) (value divisor)))
    )
  )
)
